1624520
68, 35, 62, 37, 28, 31, 22, 57, 18, 14, 44, 50, 36, 20, 13, 54, 49, 6, 66, 34, 46, 7, 38, 67, 64, 25, 29, 60, 40, 56, 32, 12, 42, 61, 24, 48, 2, 45, 17, 3, 21, 23, 51, 39, 19, 63, 27, 10, 15, 9, 65, 30, 8, 53, 33, 52, 26, 55, 5, 47, 4, 58, 59, 1, 16, 11, 43, 41
